CMD:
./solvers/bin/cadical --plain --no-reduce -t 1600 ./data/cnfs//beemptrsn1b1/beemptrsn1b1.44.cnf

c --- [ banner ] -------------------------------------------------------------
c 
c CaDiCaL SAT Solver
c Copyright (c) 2016-2024
c A. Biere, M. Fleury, N. Froleyks, K. Fazekas, F. Pollitt, T. Faller
c JKU Linz, University of Freiburg, TU Wien
c 
c Version 2.1.3 5296d3d2a9bf48c154ab2acb5e44625776d821bf
c g++ (Gentoo 12.3.1_p20230526 p2) 12.3.1 20230526 -Wall -Wextra -O3 -DNDEBUG
c Sat Aug 9 07:26:21 PDT 2025 Linux cedar2.int.cedar.computecanada.ca 5.14.0-362.24.2.el9_3.x86_64 x86_64
c 
c --- [ limit ] --------------------------------------------------------------
c 
c setting time limit to 1600 seconds real time (due to '-t 1600')
c 
c --- [ parsing input ] ------------------------------------------------------
c 
c reading DIMACS file from './data/cnfs//beemptrsn1b1/beemptrsn1b1.44.cnf'
c opening file to read './data/cnfs//beemptrsn1b1/beemptrsn1b1.44.cnf'
c found 'p cnf 86558 241493' header
c parsed 241493 clauses in 0.05 seconds process time
c 
c --- [ options ] ------------------------------------------------------------
c 
c   --compact=false                (different from default 'true')
c   --decompose=false              (different from default 'true')
c   --deduplicate=false            (different from default 'true')
c   --elim=false                   (different from default 'true')
c   --probe=false                  (different from default 'true')
c   --reduce=false                 (different from default 'true')
c   --subsume=false                (different from default 'true')
c   --ternary=false                (different from default 'true')
c   --transred=false               (different from default 'true')
c   --vivify=false                 (different from default 'true')
c 
c --- [ solving ] ------------------------------------------------------------
c 
c time measured in process time since initialization
c 
c  seconds  reductions  redundant  irredundant
c         MB    restarts       trail       variables
c          level   conflicts       glue         remaining
c 
c *  0.05 42  0 0   0    0    0  0% 0 240647 49517 57%
c {  0.05 43  0 0   0    0    0  0% 0 240647 49517 57%
c i  0.09 44 122 0  24  466  425 62% 5 240647 49432 57%
c i  0.09 44 121 0  24  506  454 63% 5 240647 49331 57%
c i  0.09 44 120 0  24  513  460 63% 5 240647 49330 57%
c i  0.09 44 119 0  24  551  494 63% 5 240647 49219 57%
c i  0.09 44 119 0  24  553  493 63% 5 240647 49032 57%
c i  0.09 44 119 0  24  575  509 63% 5 240647 49031 57%
c i  0.10 44 116 0  27  617  543 63% 5 240647 49017 57%
c i  0.10 44 116 0  27  618  543 63% 5 240647 48783 56%
c i  0.10 44 111 0  29  647  566 62% 5 240647 48727 56%
c i  0.10 44 111 0  29  649  567 62% 5 240647 48716 56%
c i  0.10 44 110 0  29  657  574 62% 5 240647 48706 56%
c i  0.10 44 109 0  29  663  579 62% 5 240647 48705 56%
c i  0.10 44 99 0  30  759  669 60% 5 240647 48553 56%
c }  0.11 44 83 0  35 1000  878 57% 5 240647 48553 56%
c [  0.11 44  0 0  35 1000  878  0% 0 240647 48553 56%
c O  0.11 44 57 0  35 1002  880 51% 7 240647 48553 56%
c i  0.20 44 40 0  36 2911 2496 48% 10 240647 48552 56%
c i  0.20 44 42 0  36 2978 2552 48% 9 240647 48492 56%
c 
c  seconds  reductions  redundant  irredundant
c         MB    restarts       trail       variables
c          level   conflicts       glue         remaining
c 
c i  0.20 44 42 0  36 2979 2552 48% 9 240647 48440 56%
c i  0.20 44 42 0  36 2980 2552 48% 9 240647 48399 56%
c i  0.20 44 42 0  36 2981 2552 48% 9 240647 48370 56%
c i  0.20 44 42 0  36 2983 2552 48% 9 240647 48186 56%
c ]  0.20 44 43 0  36 3001 2570 48% 9 240647 48186 56%
c {  0.20 44 83 0  36 3001 2570 57% 5 240647 48186 56%
c F  0.21 44 83 0  36 3003 2572 57% 5 240647 48186 56%
c i  0.21 44 80 0  36 3096 2663 57% 4 240647 48185 56%
c i  0.21 44 80 0  36 3107 2672 57% 4 240647 48183 56%
c i  0.21 44 80 0  36 3112 2674 57% 4 240647 48181 56%
c i  0.22 44 75 0  39 3249 2799 57% 4 240647 48163 56%
c i  0.22 44 75 0  41 3397 2939 57% 4 240647 48015 55%
c i  0.25 44 80 0  50 3783 3289 59% 4 240647 48006 55%
c i  0.25 44 75 0  51 4040 3516 59% 4 240647 48005 55%
c i  0.25 44 75 0  51 4047 3521 59% 4 240647 47998 55%
c i  0.25 44 74 0  51 4056 3529 59% 4 240647 47997 55%
c i  0.29 44 75 0  66 4698 4119 58% 4 240647 47951 55%
c i  0.30 44 74 0  76 4968 4362 58% 4 240647 47701 55%
c i  0.31 44 72 0  97 5083 4466 58% 4 240647 47605 55%
c i  0.32 44 73 0 101 5121 4502 58% 4 240647 47604 55%
c 
c  seconds  reductions  redundant  irredundant
c         MB    restarts       trail       variables
c          level   conflicts       glue         remaining
c 
c i  0.32 44 73 0 101 5122 4502 58% 4 240647 47603 55%
c i  0.32 44 73 0 101 5124 4502 58% 4 240647 47601 55%
c i  0.33 44 74 0 104 5176 4548 58% 4 240647 47579 55%
c i  0.34 44 72 0 111 5372 4730 58% 4 240647 47472 55%
... skipped 502 lines ...
c i 15.99 59 40 0 11378 110788 94916 69% 8 87051 29568 34%
c i 16.00 59 40 0 11380 110857 94951 69% 8 87051 29567 34%
c i 16.11 59 40 0 11465 111248 95320 69% 8 87051 29566 34%
c i 16.26 59 40 0 11585 111978 95995 69% 8 87051 29210 34%
c i 16.40 59 40 0 11690 112447 96429 69% 8 87051 29207 34%
c i 16.44 59 39 0 11700 112763 96640 69% 8 87051 29206 34%
c i 17.10 59 39 0 12153 115798 99311 69% 8 87051 29191 34%
c i 17.54 59 39 0 12474 117633 100982 69% 8 87051 29190 34%
c i 17.54 59 39 0 12474 117634 100982 69% 8 87051 29136 34%
c i 17.54 59 39 0 12474 117636 100983 69% 8 87051 28516 33%
c i 17.54 59 39 0 12474 117646 100991 69% 8 87051 28258 33%
c i 17.55 59 39 0 12474 117684 101014 69% 8 87051 28202 33%
c i 17.55 59 39 0 12476 117735 101060 69% 8 87051 28201 33%
c W 18.23 63 39 0 12920 120031 100614 69% 8 76660 28201 33%
c 
c  seconds  reductions       redundant   irredundant
c         MB     restarts            trail      variables
c          level      conflicts          glue        remaining
c 
c i 18.45 63 39 0 13080 120870 101374 69% 8 76660 28200 33%
c i 18.69 63 39 0 13247 121806 102194 69% 8 76660 28195 33%
c i 19.13 63 39 0 13532 124115 104299 70% 8 76660 28177 33%
c } 19.66 63 39 0 13909 127006 106912 70% 8 76660 28177 33%
c [ 19.66 63 115 0 13909 127006 106912 73% 15 76660 28177 33%
c i 20.16 63 106 0 13910 130593 110091 74% 15 76660 28128 32%
c B 20.91 63 95 0 13914 136032 114638 74% 14 76660 28128 32%
c i 21.44 63 89 0 13917 139964 118074 74% 15 76660 28111 32%
c W 23.30 70 74 0 13919 153039 129628 74% 15 76383 28111 32%
c i 23.98 70 70 0 13919 157298 133010 74% 15 76383 28110 32%
c I 26.00 70 59 0 13921 171041 144814 75% 14 76383 28110 32%
c i 26.29 70 58 0 13922 172952 146492 75% 14 76383 27921 32%
c B 29.25 70 49 0 13933 190046 160440 75% 14 76383 27921 32%
c i 29.82 70 48 0 13933 192877 162978 75% 14 76383 27873 32%
c i 31.65 73 44 0 13934 202441 170085 75% 14 76383 27831 32%
c i 33.09 75 41 0 13940 208981 174807 75% 14 76383 27784 32%
c W 33.49 80 41 0 13940 210049 144253 75% 14 75399 27784 32%
c i 33.76 80 41 0 13941 211389 145134 75% 14 75399 27775 32%
c i 34.71 80 40 0 13943 216712 149465 75% 14 75399 27082 31%
c i 34.84 80 39 0 13944 217315 149845 75% 14 75399 26752 31%
c 
c  seconds  reductions       redundant    irredundant
c         MB     restarts            trail       variables
c          level      conflicts          glue         remaining
c 
c ] 34.84 80 39 0 13944 217321 149848 75% 14 75399 26488 31%
c 0 34.84 80 39 0 13944 217321 149848 75% 14 75399 26488 31%
c 
c --- [ result ] -------------------------------------------------------------
c 
s UNSATISFIABLE
c 
c --- [ run-time profiling ] -------------------------------------------------
c 
c process time taken by individual solving procedures
c (percentage relative to process time for solving)
c 
c        34.79  100.00% search
c        18.77   53.94% stable
c        15.54   44.66% unstable
c         0.48    1.38% walk
c         0.05    0.13% parse
c         0.01    0.02% lucky
c         0.00    0.00% simplify
c   =================================
c        34.79   99.87% solve
c 
c last line shows process time for solving
c (percentage relative to total process time)
c 
c --- [ statistics ] ---------------------------------------------------------
c 
c chronological:             65141        29.97 %  of conflicts
c conflicts:                217321      6246.55    per second
c decisions:                827919     23797.22    per second
c fixed:                     60070        69.40 %  of all variables
c learned:                  210263        96.75 %  per conflict
c learned_lits:           15844101       100.00 %  learned literals
c minimized:                     0         0.00 %  learned literals
c shrunken:                3600930        22.73 %  learned literals
c minishrunken:            3971865        25.07 %  learned literals
c otfs:                       1164         0.54 %  of conflict
c propagations:          270149311         7.77 M  per second
c rephased:                     20     10866.05    interval
c restarts:                  13944        15.59    interval
c stabilizing:                   4        60.88 %  of conflicts
c subsumed:                  20400         4.53 %  of all clauses
c strengthened:               1144         0.25 %  of all clauses
c walked:                        6     36220.17    interval
c 
c seconds are measured in process time for solving
c 
c --- [ resources ] ----------------------------------------------------------
c 
c total process time since initialization:        34.84    seconds
c total real time since initialization:           35.00    seconds
c maximum resident set size of process:          100.56    MB
c 
c --- [ shutting down ] ------------------------------------------------------
c 
c exit 20
